gen	cost
1	21000
2	20979
3	20822
4	20671
5	20614
6	20538
7	20403
8	20325
9	20266
10	20100
11	20045
12	19976
13	19887
14	19852
15	19706
16	19628
17	19599
18	19500
19	19492
20	19394
21	19356
22	19196
23	19061
24	18997
25	18883
26	18879
27	18853
28	18824
29	18791
30	18749
31	18675
32	18543
33	18487
34	18462
35	18453
36	18395
37	18341
38	18276
39	18211
40	18153
41	18116
42	18070
43	18025
44	18000
45	17988
46	17909
47	17880
48	17845
49	17835
50	17799

